c "628776.clq"
p edge 141 548
e 1 5
e 1 6
e 1 7
e 1 8
e 1 9
e 1 10
e 1 11
e 1 13
e 1 14
e 1 16
e 1 17
e 1 18
e 1 19
e 1 21
e 1 22
e 1 23
e 1 29
e 1 30
e 1 31
e 1 34
e 1 36
e 1 44
e 1 45
e 1 46
e 1 53
e 1 56
e 1 61
e 1 65
e 1 69
e 1 70
e 1 74
e 1 77
e 1 84
e 1 100
e 1 109
e 1 110
e 1 111
e 1 118
e 1 120
e 1 123
e 1 134
e 2 5
e 2 6
e 2 7
e 2 82
e 2 128
e 3 5
e 3 7
e 3 8
e 3 9
e 3 10
e 3 11
e 3 12
e 3 13
e 3 15
e 3 16
e 3 19
e 3 23
e 3 24
e 3 25
e 3 28
e 3 30
e 3 33
e 3 38
e 3 39
e 3 46
e 3 57
e 3 64
e 3 95
e 3 96
e 3 114
e 3 130
e 3 132
e 3 134
e 3 136
e 4 5
e 4 6
e 4 7
e 4 16
e 4 22
e 4 25
e 4 26
e 4 31
e 4 47
e 4 48
e 4 49
e 4 54
e 4 97
e 4 107
e 5 6
e 5 8
e 5 9
e 5 10
e 5 12
e 5 14
e 5 15
e 5 17
e 5 18
e 5 20
e 5 21
e 5 27
e 5 30
e 5 32
e 5 38
e 5 39
e 5 41
e 5 43
e 5 50
e 5 52
e 5 61
e 5 62
e 5 65
e 5 69
e 5 73
e 5 89
e 5 96
e 5 99
e 5 102
e 5 103
e 5 104
e 5 110
e 5 115
e 5 117
e 5 128
e 5 140
e 6 8
e 6 10
e 6 16
e 6 18
e 6 29
e 6 37
e 6 39
e 6 40
e 6 45
e 6 48
e 6 50
e 6 52
e 6 53
e 6 57
e 6 77
e 6 78
e 6 83
e 6 87
e 6 91
e 6 97
e 6 120
e 6 127
e 6 129
e 6 133
e 7 9
e 7 12
e 7 13
e 7 17
e 7 18
e 7 21
e 7 28
e 7 34
e 7 36
e 7 37
e 7 42
e 7 47
e 7 49
e 7 50
e 7 54
e 7 61
e 7 67
e 7 72
e 7 76
e 7 95
e 7 99
e 7 107
e 7 109
e 7 110
e 7 112
e 7 115
e 7 128
e 7 135
e 7 139
e 7 141
e 8 11
e 8 17
e 8 35
e 8 40
e 8 46
e 8 70
e 8 73
e 8 90
e 8 107
e 8 111
e 8 116
e 8 122
e 8 126
e 8 127
e 8 134
e 9 12
e 9 15
e 9 20
e 9 23
e 9 24
e 9 26
e 9 28
e 9 31
e 9 33
e 9 41
e 9 48
e 9 52
e 9 55
e 9 58
e 9 59
e 9 62
e 9 64
e 9 66
e 9 71
e 9 88
e 10 11
e 10 13
e 10 19
e 10 24
e 10 29
e 10 35
e 10 37
e 10 41
e 10 51
e 10 59
e 10 60
e 10 62
e 10 93
e 10 102
e 10 118
e 10 139
e 11 14
e 11 19
e 11 20
e 11 23
e 11 31
e 11 33
e 11 47
e 11 57
e 11 75
e 11 94
e 11 98
e 11 112
e 11 113
e 12 29
e 12 35
e 12 49
e 12 51
e 12 55
e 12 60
e 12 63
e 12 64
e 12 80
e 12 87
e 12 100
e 12 108
e 12 117
e 13 14
e 13 27
e 13 49
e 13 68
e 13 98
e 13 131
e 13 134
e 14 15
e 14 24
e 14 25
e 14 32
e 14 67
e 14 68
e 14 88
e 14 112
e 14 127
e 14 135
e 14 136
e 15 32
e 15 53
e 15 56
e 15 93
e 15 116
e 16 37
e 16 60
e 16 76
e 16 90
e 16 97
e 16 114
e 16 137
e 17 26
e 17 36
e 17 38
e 17 58
e 17 59
e 17 72
e 17 74
e 17 78
e 17 81
e 17 128
e 18 22
e 18 41
e 19 20
e 19 21
e 19 25
e 19 32
e 19 39
e 19 42
e 19 43
e 19 45
e 19 54
e 19 63
e 19 67
e 19 90
e 19 101
e 19 105
e 19 116
e 19 125
e 19 131
e 20 22
e 20 34
e 20 68
e 20 74
e 20 77
e 20 135
e 20 141
e 22 36
e 22 103
e 22 115
e 22 125
e 23 26
e 23 28
e 23 30
e 23 81
e 24 27
e 24 48
e 24 71
e 24 79
e 24 80
e 24 81
e 24 94
e 24 103
e 25 33
e 25 40
e 25 98
e 25 121
e 25 138
e 26 27
e 26 34
e 26 43
e 26 54
e 26 91
e 26 96
e 26 129
e 26 132
e 26 136
e 27 38
e 27 40
e 27 42
e 27 44
e 27 55
e 27 62
e 27 64
e 27 65
e 27 71
e 27 92
e 27 94
e 27 104
e 27 119
e 27 120
e 27 130
e 28 35
e 28 124
e 30 75
e 30 83
e 30 86
e 30 105
e 31 50
e 31 56
e 31 118
e 32 44
e 32 58
e 32 60
e 32 69
e 32 92
e 32 100
e 32 137
e 32 141
e 33 58
e 33 91
e 33 93
e 33 108
e 33 124
e 33 127
e 34 51
e 34 103
e 35 42
e 35 56
e 35 61
e 35 73
e 35 125
e 36 82
e 36 83
e 36 85
e 37 44
e 37 45
e 37 68
e 37 121
e 37 124
e 38 119
e 38 122
e 39 46
e 39 84
e 39 86
e 39 113
e 40 99
e 40 125
e 41 43
e 41 66
e 41 95
e 41 106
e 41 138
e 42 63
e 42 66
e 42 73
e 42 78
e 42 91
e 42 106
e 42 117
e 42 119
e 42 131
e 42 133
e 43 52
e 43 70
e 43 85
e 44 59
e 45 47
e 45 51
e 45 57
e 45 77
e 45 85
e 45 94
e 45 110
e 46 70
e 46 79
e 46 87
e 46 96
e 46 98
e 46 101
e 46 112
e 47 63
e 48 83
e 48 88
e 49 53
e 50 82
e 51 80
e 51 84
e 52 55
e 52 82
e 52 86
e 52 115
e 53 87
e 53 88
e 55 76
e 57 109
e 57 113
e 58 72
e 58 106
e 58 111
e 58 130
e 59 67
e 59 118
e 59 120
e 59 126
e 60 66
e 60 106
e 60 140
e 62 71
e 62 72
e 62 75
e 62 90
e 62 139
e 63 89
e 63 99
e 63 100
e 63 109
e 63 126
e 63 137
e 64 65
e 64 79
e 65 108
e 65 132
e 65 137
e 66 89
e 67 69
e 67 80
e 67 102
e 68 85
e 68 101
e 68 126
e 69 75
e 69 84
e 69 89
e 69 104
e 71 74
e 71 78
e 71 81
e 71 121
e 71 129
e 72 92
e 72 97
e 72 107
e 72 138
e 73 79
e 73 86
e 73 95
e 74 104
e 74 105
e 75 76
e 75 92
e 76 111
e 76 113
e 78 93
e 84 129
e 85 114
e 85 116
e 85 139
e 86 138
e 87 105
e 87 136
e 90 131
e 91 114
e 92 130
e 92 133
e 94 123
e 97 101
e 97 108
e 99 102
e 99 117
e 99 140
e 103 122
e 104 119
e 104 123
e 105 121
e 105 122
e 105 133
e 108 123
e 109 140
e 112 135
e 115 124
e 125 132
e 136 141
